10
-1 26 27 50 60 46 34 2 80 18
41 -1 46 21 48 51 82 77 49 61
46 35 -1 72 20 62 9 47 79 9
10 19 91 -1 82 12 23 87 26 4
90 57 22 12 -1 66 79 88 28 46
9 5 90 12 88 -1 54 21 40 35
49 49 59 83 7 79 -1 67 16 22
44 25 68 27 3 25 50 -1 73 14
75 64 87 22 71 88 68 69 -1 33
62 17 41 67 5 81 10 38 52 -1
142